Solution in this episode: [34, 358, 442, 392, 187, 69, 170, 239, 425, 205, 306, 375, 136, 103, 476, 18, 51, 222, 459, 120, 493, 290, 85, 256, 323, 273, 0, 409, 340, 154, 37, 359, 445, 393, 43, 367, 46, 191, 70, 368, 173, 240, 50, 371, 449, 397, 428, 206, 192, 308, 378, 452, 401, 138, 105, 196, 76, 180, 455, 457, 479, 20, 53, 223, 248, 430, 461, 123, 403, 495, 406, 291, 199, 81, 211, 435, 88, 258, 182, 326, 275, 202, 83, 213, 316, 379, 3, 411, 251, 343, 156, 384, 146, 112, 185, 253, 436, 441, 215, 485, 318, 27, 61, 220, 322, 385, 147, 230, 389, 115, 489, 469, 126, 150, 118, 29, 491, 33, 129, 502, 64, 234, 299, 65, 94, 471, 261, 235, 473, 131, 330, 265, 506, 278, 333, 300, 135, 509, 304, 7, 281, 96, 101, 266, 10, 417, 271, 335, 347, 283, 337, 12, 286, 15, 421, 349, 163, 424, 351, 166, 354, 168]
